3 
4  26 41 56 
5  11 26 38 44 50 55 59 
6  05 10 15 20 25 30 35 40 45 50 55 
7  00 05 10 15 20 25 30 35 40 45 50 55 
8  00 05 10 15 20 25 30 35 40 46 51 56 
9  03 11 18 26 33 41 49 56 
10  04 11 19 26 34 41 49 56 
11  04 11 19 26 34 41 49 56 
12  04 11 19 26 34 41 49 56 
13  04 11 19 26 34 41 49 56 
14  02 06 11 16 21 26 31 36 41 46 51 56 
15  01 06 11 16 21 26 31 36 41 46 51 56 
16  01 06 11 16 21 26 31 36 41 46 51 56 
17  01 06 11 16 21 26 31 36 43 50 58 
18  04 10 15 21 26 30 36 43 50 58 
19  06 13 21 28 35 43 51 
20  03 18 33 48 
21  03 18 33 48 
22  03 18 33 48 
23 
0 
